p edge 490 910
e 1 10 1
e 1 2 1
e 2 11 1
e 2 3 1
e 3 12 1
e 3 4 1
e 4 13 1
e 4 5 1
e 5 14 1
e 5 6 1
e 6 15 1
e 7 22 1
e 7 8 1
e 8 23 1
e 8 9 1
e 9 24 1
e 10 25 1
e 10 11 1
e 11 26 1
e 11 12 1
e 12 27 1
e 12 13 1
e 13 28 1
e 13 14 1
e 14 29 1
e 14 15 1
e 15 30 1
e 16 33 1
e 16 17 1
e 17 34 1
e 17 18 1
e 18 35 1
e 18 19 1
e 19 36 1
e 19 20 1
e 20 37 1
e 20 21 1
e 21 38 1
e 22 41 1
e 22 23 1
e 23 42 1
e 23 24 1
e 24 43 1
e 25 44 1
e 25 26 1
e 26 45 1
e 26 27 1
e 27 46 1
e 27 28 1
e 28 47 1
e 28 29 1
e 29 48 1
e 29 30 1
e 30 49 1
e 30 31 1
e 31 50 1
e 31 32 1
e 32 51 1
e 32 33 1
e 33 52 1
e 33 34 1
e 34 53 1
e 34 35 1
e 35 54 1
e 35 36 1
e 36 55 1
e 36 37 1
e 37 56 1
e 37 38 1
e 38 57 1
e 38 39 1
e 39 58 1
e 39 40 1
e 40 59 1
e 40 41 1
e 41 60 1
e 41 42 1
e 42 61 1
e 42 43 1
e 43 62 1
e 44 63 1
e 44 45 1
e 45 64 1
e 45 46 1
e 46 65 1
e 46 47 1
e 47 66 1
e 47 48 1
e 48 67 1
e 48 49 1
e 49 68 1
e 49 50 1
e 50 69 1
e 50 51 1
e 51 70 1
e 51 52 1
e 52 71 1
e 52 53 1
e 53 72 1
e 53 54 1
e 54 73 1
e 54 55 1
e 55 74 1
e 55 56 1
e 56 75 1
e 56 57 1
e 57 76 1
e 57 58 1
e 58 77 1
e 58 59 1
e 59 78 1
e 59 60 1
e 60 79 1
e 60 61 1
e 61 80 1
e 61 62 1
e 62 81 1
e 63 82 1
e 63 64 1
e 64 83 1
e 64 65 1
e 65 84 1
e 65 66 1
e 66 85 1
e 66 67 1
e 67 86 1
e 67 68 1
e 68 87 1
e 68 69 1
e 69 88 1
e 69 70 1
e 70 89 1
e 70 71 1
e 71 90 1
e 71 72 1
e 72 91 1
e 72 73 1
e 73 92 1
e 73 74 1
e 74 93 1
e 74 75 1
e 75 94 1
e 75 76 1
e 76 95 1
e 76 77 1
e 77 96 1
e 77 78 1
e 78 97 1
e 78 79 1
e 79 98 1
e 79 80 1
e 80 99 1
e 80 81 1
e 81 100 1
e 82 83 1
e 83 84 1
e 84 101 1
e 84 85 1
e 85 102 1
e 85 86 1
e 86 103 1
e 86 87 1
e 87 104 1
e 87 88 1
e 88 105 1
e 88 89 1
e 89 106 1
e 89 90 1
e 90 107 1
e 90 91 1
e 91 108 1
e 91 92 1
e 92 109 1
e 92 93 1
e 93 110 1
e 93 94 1
e 94 111 1
e 94 95 1
e 95 112 1
e 95 96 1
e 96 113 1
e 96 97 1
e 97 114 1
e 97 98 1
e 98 115 1
e 98 99 1
e 99 116 1
e 99 100 1
e 100 117 1
e 101 118 1
e 101 102 1
e 102 119 1
e 102 103 1
e 103 120 1
e 103 104 1
e 104 121 1
e 104 105 1
e 105 122 1
e 105 106 1
e 106 123 1
e 106 107 1
e 107 124 1
e 107 108 1
e 108 125 1
e 108 109 1
e 109 126 1
e 109 110 1
e 110 127 1
e 110 111 1
e 111 128 1
e 111 112 1
e 112 129 1
e 112 113 1
e 113 130 1
e 113 114 1
e 114 131 1
e 114 115 1
e 115 132 1
e 115 116 1
e 116 133 1
e 116 117 1
e 117 134 1
e 118 137 1
e 118 119 1
e 119 138 1
e 119 120 1
e 120 139 1
e 120 121 1
e 121 140 1
e 121 122 1
e 122 141 1
e 122 123 1
e 123 142 1
e 123 124 1
e 124 143 1
e 124 125 1
e 125 144 1
e 125 126 1
e 126 145 1
e 126 127 1
e 127 146 1
e 127 128 1
e 128 147 1
e 128 129 1
e 129 148 1
e 129 130 1
e 130 149 1
e 130 131 1
e 131 150 1
e 131 132 1
e 132 151 1
e 132 133 1
e 133 152 1
e 133 134 1
e 135 153 1
e 135 136 1
e 136 154 1
e 136 137 1
e 137 155 1
e 137 138 1
e 138 156 1
e 138 139 1
e 139 157 1
e 139 140 1
e 140 158 1
e 140 141 1
e 141 159 1
e 141 142 1
e 142 160 1
e 142 143 1
e 143 161 1
e 143 144 1
e 144 162 1
e 144 145 1
e 145 163 1
e 145 146 1
e 146 164 1
e 146 147 1
e 147 165 1
e 147 148 1
e 148 166 1
e 148 149 1
e 149 167 1
e 149 150 1
e 150 168 1
e 150 151 1
e 151 169 1
e 151 152 1
e 152 170 1
e 153 173 1
e 153 154 1
e 154 174 1
e 154 155 1
e 155 175 1
e 155 156 1
e 156 176 1
e 156 157 1
e 157 177 1
e 157 158 1
e 158 178 1
e 158 159 1
e 159 179 1
e 159 160 1
e 160 180 1
e 160 161 1
e 161 181 1
e 161 162 1
e 162 182 1
e 162 163 1
e 163 183 1
e 163 164 1
e 164 184 1
e 164 165 1
e 165 185 1
e 165 166 1
e 166 186 1
e 166 167 1
e 167 187 1
e 167 168 1
e 168 188 1
e 168 169 1
e 169 189 1
e 169 170 1
e 170 190 1
e 170 171 1
e 171 191 1
e 172 192 1
e 172 173 1
e 173 193 1
e 173 174 1
e 174 194 1
e 174 175 1
e 175 195 1
e 175 176 1
e 176 196 1
e 176 177 1
e 177 197 1
e 177 178 1
e 178 198 1
e 178 179 1
e 179 199 1
e 179 180 1
e 180 200 1
e 180 181 1
e 181 201 1
e 181 182 1
e 182 183 1
e 183 184 1
e 184 185 1
e 185 202 1
e 185 186 1
e 186 203 1
e 186 187 1
e 187 204 1
e 187 188 1
e 188 205 1
e 188 189 1
e 189 206 1
e 189 190 1
e 190 207 1
e 190 191 1
e 191 208 1
e 192 193 1
e 193 209 1
e 193 194 1
e 194 210 1
e 194 195 1
e 195 211 1
e 195 196 1
e 196 212 1
e 196 197 1
e 197 213 1
e 197 198 1
e 198 214 1
e 198 199 1
e 199 215 1
e 199 200 1
e 200 216 1
e 200 201 1
e 201 217 1
e 202 218 1
e 202 203 1
e 203 219 1
e 203 204 1
e 204 220 1
e 204 205 1
e 205 221 1
e 205 206 1
e 206 222 1
e 206 207 1
e 207 223 1
e 207 208 1
e 208 224 1
e 209 225 1
e 209 210 1
e 210 226 1
e 210 211 1
e 211 227 1
e 211 212 1
e 212 228 1
e 212 213 1
e 213 229 1
e 213 214 1
e 214 230 1
e 214 215 1
e 215 231 1
e 215 216 1
e 216 232 1
e 216 217 1
e 217 233 1
e 218 234 1
e 218 219 1
e 219 235 1
e 219 220 1
e 220 236 1
e 220 221 1
e 221 237 1
e 221 222 1
e 222 238 1
e 222 223 1
e 223 239 1
e 223 224 1
e 224 240 1
e 225 226 1
e 226 227 1
e 227 241 1
e 227 228 1
e 228 242 1
e 228 229 1
e 229 243 1
e 229 230 1
e 230 244 1
e 230 231 1
e 231 245 1
e 231 232 1
e 232 246 1
e 232 233 1
e 233 247 1
e 234 248 1
e 234 235 1
e 235 249 1
e 235 236 1
e 236 250 1
e 236 237 1
e 237 251 1
e 237 238 1
e 238 252 1
e 238 239 1
e 239 253 1
e 239 240 1
e 240 254 1
e 241 255 1
e 241 242 1
e 242 256 1
e 242 243 1
e 243 257 1
e 243 244 1
e 244 258 1
e 244 245 1
e 245 259 1
e 245 246 1
e 246 260 1
e 246 247 1
e 247 261 1
e 248 262 1
e 248 249 1
e 249 263 1
e 249 250 1
e 250 264 1
e 250 251 1
e 251 265 1
e 251 252 1
e 252 266 1
e 252 253 1
e 253 267 1
e 253 254 1
e 254 268 1
e 255 270 1
e 255 256 1
e 256 271 1
e 256 257 1
e 257 272 1
e 257 258 1
e 258 273 1
e 258 259 1
e 259 274 1
e 259 260 1
e 260 275 1
e 260 261 1
e 261 276 1
e 262 277 1
e 262 263 1
e 263 278 1
e 263 264 1
e 264 279 1
e 264 265 1
e 265 280 1
e 265 266 1
e 266 281 1
e 266 267 1
e 267 282 1
e 267 268 1
e 268 283 1
e 269 284 1
e 269 270 1
e 270 285 1
e 270 271 1
e 271 286 1
e 271 272 1
e 272 287 1
e 272 273 1
e 273 288 1
e 273 274 1
e 274 289 1
e 274 275 1
e 275 290 1
e 275 276 1
e 276 291 1
e 277 292 1
e 277 278 1
e 278 293 1
e 278 279 1
e 279 294 1
e 279 280 1
e 280 295 1
e 280 281 1
e 281 296 1
e 281 282 1
e 282 297 1
e 282 283 1
e 283 298 1
e 284 299 1
e 284 285 1
e 285 300 1
e 285 286 1
e 286 301 1
e 286 287 1
e 287 302 1
e 287 288 1
e 288 303 1
e 288 289 1
e 289 304 1
e 289 290 1
e 290 305 1
e 290 291 1
e 291 306 1
e 292 307 1
e 292 293 1
e 293 308 1
e 293 294 1
e 294 309 1
e 294 295 1
e 295 310 1
e 295 296 1
e 296 311 1
e 296 297 1
e 297 312 1
e 297 298 1
e 298 313 1
e 299 314 1
e 299 300 1
e 300 315 1
e 300 301 1
e 301 316 1
e 301 302 1
e 302 317 1
e 302 303 1
e 303 318 1
e 303 304 1
e 304 319 1
e 304 305 1
e 305 320 1
e 305 306 1
e 306 321 1
e 307 325 1
e 307 308 1
e 308 326 1
e 308 309 1
e 309 327 1
e 309 310 1
e 310 328 1
e 310 311 1
e 311 329 1
e 311 312 1
e 312 330 1
e 312 313 1
e 313 331 1
e 314 332 1
e 314 315 1
e 315 333 1
e 315 316 1
e 316 334 1
e 316 317 1
e 317 335 1
e 317 318 1
e 318 336 1
e 318 319 1
e 319 337 1
e 319 320 1
e 320 338 1
e 320 321 1
e 321 339 1
e 321 322 1
e 322 340 1
e 322 323 1
e 323 341 1
e 323 324 1
e 324 342 1
e 324 325 1
e 325 343 1
e 325 326 1
e 326 344 1
e 326 327 1
e 327 345 1
e 327 328 1
e 328 346 1
e 328 329 1
e 329 347 1
e 329 330 1
e 330 348 1
e 330 331 1
e 331 349 1
e 332 350 1
e 332 333 1
e 333 351 1
e 333 334 1
e 334 352 1
e 334 335 1
e 335 353 1
e 335 336 1
e 336 354 1
e 336 337 1
e 337 355 1
e 337 338 1
e 338 356 1
e 338 339 1
e 339 357 1
e 339 340 1
e 340 358 1
e 340 341 1
e 341 359 1
e 341 342 1
e 342 360 1
e 342 343 1
e 343 361 1
e 343 344 1
e 344 362 1
e 344 345 1
e 345 363 1
e 345 346 1
e 346 364 1
e 346 347 1
e 347 365 1
e 347 348 1
e 348 366 1
e 348 349 1
e 349 367 1
e 350 351 1
e 351 368 1
e 351 352 1
e 352 369 1
e 352 353 1
e 353 370 1
e 353 354 1
e 354 371 1
e 354 355 1
e 355 372 1
e 355 356 1
e 356 373 1
e 356 357 1
e 357 374 1
e 357 358 1
e 358 375 1
e 358 359 1
e 359 376 1
e 359 360 1
e 360 377 1
e 360 361 1
e 361 378 1
e 361 362 1
e 362 379 1
e 362 363 1
e 363 380 1
e 363 364 1
e 364 381 1
e 364 365 1
e 365 382 1
e 365 366 1
e 366 383 1
e 366 367 1
e 367 384 1
e 368 385 1
e 368 369 1
e 369 386 1
e 369 370 1
e 370 387 1
e 370 371 1
e 371 388 1
e 371 372 1
e 372 389 1
e 372 373 1
e 373 390 1
e 373 374 1
e 374 391 1
e 374 375 1
e 375 392 1
e 375 376 1
e 376 393 1
e 376 377 1
e 377 394 1
e 377 378 1
e 378 395 1
e 378 379 1
e 379 396 1
e 379 380 1
e 380 397 1
e 380 381 1
e 381 398 1
e 381 382 1
e 382 399 1
e 382 383 1
e 383 400 1
e 383 384 1
e 384 401 1
e 385 404 1
e 385 386 1
e 386 405 1
e 386 387 1
e 387 406 1
e 387 388 1
e 388 407 1
e 388 389 1
e 389 408 1
e 389 390 1
e 390 409 1
e 390 391 1
e 391 410 1
e 391 392 1
e 392 411 1
e 392 393 1
e 393 412 1
e 393 394 1
e 394 413 1
e 394 395 1
e 395 414 1
e 395 396 1
e 396 415 1
e 396 397 1
e 397 416 1
e 397 398 1
e 398 417 1
e 398 399 1
e 399 418 1
e 399 400 1
e 400 419 1
e 400 401 1
e 401 420 1
e 402 421 1
e 402 403 1
e 403 422 1
e 403 404 1
e 404 423 1
e 404 405 1
e 405 424 1
e 405 406 1
e 406 425 1
e 406 407 1
e 407 426 1
e 407 408 1
e 408 427 1
e 408 409 1
e 409 428 1
e 409 410 1
e 410 429 1
e 410 411 1
e 411 430 1
e 411 412 1
e 412 431 1
e 412 413 1
e 413 432 1
e 413 414 1
e 414 433 1
e 414 415 1
e 415 434 1
e 415 416 1
e 416 435 1
e 416 417 1
e 417 436 1
e 417 418 1
e 418 437 1
e 418 419 1
e 419 438 1
e 419 420 1
e 420 439 1
e 421 440 1
e 421 422 1
e 422 441 1
e 422 423 1
e 423 442 1
e 423 424 1
e 424 443 1
e 424 425 1
e 425 444 1
e 425 426 1
e 426 445 1
e 426 427 1
e 427 446 1
e 427 428 1
e 428 447 1
e 428 429 1
e 429 448 1
e 429 430 1
e 430 449 1
e 430 431 1
e 431 450 1
e 431 432 1
e 432 451 1
e 432 433 1
e 433 452 1
e 433 434 1
e 434 453 1
e 434 435 1
e 435 454 1
e 435 436 1
e 436 455 1
e 436 437 1
e 437 456 1
e 437 438 1
e 438 457 1
e 438 439 1
e 439 458 1
e 440 441 1
e 441 442 1
e 442 459 1
e 442 443 1
e 443 460 1
e 443 444 1
e 444 461 1
e 444 445 1
e 445 462 1
e 445 446 1
e 446 463 1
e 446 447 1
e 447 464 1
e 447 448 1
e 448 465 1
e 448 449 1
e 449 466 1
e 449 450 1
e 450 467 1
e 450 451 1
e 451 468 1
e 451 452 1
e 452 469 1
e 452 453 1
e 453 470 1
e 453 454 1
e 454 471 1
e 454 455 1
e 455 472 1
e 455 456 1
e 456 473 1
e 456 457 1
e 457 474 1
e 457 458 1
e 458 475 1
e 459 460 1
e 460 461 1
e 461 462 1
e 462 476 1
e 462 463 1
e 463 477 1
e 463 464 1
e 464 478 1
e 464 465 1
e 465 479 1
e 465 466 1
e 466 480 1
e 466 467 1
e 467 481 1
e 467 468 1
e 468 482 1
e 468 469 1
e 469 483 1
e 469 470 1
e 470 484 1
e 470 471 1
e 471 485 1
e 471 472 1
e 472 486 1
e 472 473 1
e 473 487 1
e 473 474 1
e 474 488 1
e 474 475 1
e 475 489 1
e 476 490 1
e 476 477 1
e 477 478 1
e 478 479 1
e 479 480 1
e 480 481 1
e 481 482 1
e 482 483 1
e 483 484 1
e 484 485 1
e 485 486 1
e 486 487 1
e 487 488 1
e 488 489 1